100
100
99
97
96
95
95
95
94
94
94
93
92
90
90
89
89
89
89
89
89
88
88
86
86
85
85
85
84
84
83
82
82
80
79
78
78
78
77
77
77
76
75
75
69
67
66
66
66
65
65
65
64
64
62
62
58
58
58
58
58
55
54
53
53
51
50
50
50
49
49
46
45
42
42
42
41
40
39
39
37
37
37
37
35
33
33
32
31
30
29
28
26
25
21
21
21
21
21
20
20
20
